p cnf 63 160 
c p show 1 2 3 4 5 6 7 9 11 12 13 14 15 16 17 18 19 20 21 22 23 24 25 26 27 28 29 30 31 32 33 34 35 36 37 38 39 40 41 42 43 44 45 46 48 50 51 52 53 54 55 56 57 58 60 62 63 0
vp 0
-14 -11 -47 0
14 11 0
14 47 0
-15 -13 14 0
15 13 0
15 -14 0
-17 -18 15 0
17 18 0
17 -15 0
-19 49 -11 0
19 -49 0
19 11 0
-21 19 -13 0
21 -19 0
21 13 0
-22 -18 21 0
22 18 0
22 -21 0
-23 49 47 0
23 -49 0
23 -47 0
-24 47 -9 0
24 -47 0
24 9 0
-25 -6 24 0
25 6 0
25 -24 0
-26 -9 -49 0
26 9 0
26 49 0
-27 26 -6 0
27 -26 0
27 6 0
-28 -9 -12 0
28 9 0
28 12 0
-29 -11 -7 0
29 11 0
29 7 0
-30 -20 -18 0
30 20 0
30 18 0
-31 -49 -47 0
31 49 0
31 47 0
-32 16 31 0
32 -16 0
32 -31 0
-33 -47 -49 0
33 47 0
33 49 0
-34 16 33 0
34 -16 0
34 -33 0
-35 -10 -8 0
35 10 0
35 8 0
-36 20 35 0
36 -20 0
36 -35 0
-37 13 -59 0
37 -13 0
37 59 0
-38 37 -61 0
38 -37 0
38 61 0
-39 -18 10 0
39 18 0
39 -10 0
-40 -18 -8 0
40 18 0
40 8 0
-41 -13 61 0
41 13 0
41 -61 0
-42 -13 59 0
42 13 0
42 -59 0
-43 16 -47 0
43 -16 0
43 47 0
-44 -49 43 0
44 49 0
44 -43 0
-45 20 -8 0
45 -20 0
45 8 0
-46 45 -10 0
46 -45 0
46 10 0
-48 13 -61 0
48 -13 0
48 61 0
-50 48 -59 0
50 -48 0
50 59 0
-51 -20 10 0
51 20 0
51 -10 0
-52 -20 8 0
52 20 0
52 -8 0
-53 47 59 0
53 -47 0
53 -59 0
-54 53 -3 0
54 -53 0
54 3 0
-55 61 59 0
55 -61 0
55 -59 0
-56 18 0
-56 13 0
56 -18 -13 0
-57 20 56 0
57 -20 0
57 -56 0
-58 11 0
-58 12 0
58 -11 -12 0
-60 7 0
-60 9 0
60 -7 -9 0
-62 60 58 0
62 -60 0
62 -58 0
-63 1 0
-63 2 0
-63 3 0
-63 4 0
-63 5 0
-63 6 0
-63 62 0
-63 57 0
-63 -16 0
63 -1 -2 -3 -4 -5 -6 -62 -57 16 0
63 0
32 0
30 0
29 0
28 0
27 0
25 0
23 0
22 0
17 0
42 0
41 0
55 0
52 0
51 0
50 0
46 0
34 0
54 0
40 0
39 0
38 0
36 0
44 0
